
Gurobi 12.0.2 (win64) logging started Wed Nov 26 14:33:57 2025

Set parameter LogFile to value "resultados DATA_1_n10m10b2d2\instancia_10_log.txt"
Set parameter TimeLimit to value 3600
Gurobi Optimizer version 12.0.2 build v12.0.2rc0 (win64 - Windows 10.0 (19045.2))

CPU model: Intel(R) Core(TM) i5-6300U CPU @ 2.40GHz, instruction set [SSE2|AVX|AVX2]
Thread count: 2 physical cores, 4 logical processors, using up to 4 threads

Non-default parameters:
TimeLimit  3600

Optimize a model with 458 rows, 1660 columns and 59435 nonzeros
Model fingerprint: 0x76bff634
Variable types: 0 continuous, 1660 integer (1660 binary)
Coefficient statistics:
  Matrix range     [1e+00, 1e+00]
  Objective range  [2e-02, 2e-01]
  Bounds range     [1e+00, 1e+00]
  RHS range        [1e+00, 3e+01]
Found heuristic solution: objective 0.9240000
Presolve removed 5 rows and 683 columns
Presolve time: 0.08s
Presolved: 453 rows, 977 columns, 31059 nonzeros
Found heuristic solution: objective 0.7680000
Variable types: 0 continuous, 977 integer (977 binary)

Root relaxation: objective 1.000000e+00, 4221 iterations, 0.51 seconds (0.61 work units)

    Nodes    |    Current Node    |     Objective Bounds      |     Work
 Expl Unexpl |  Obj  Depth IntInf | Incumbent    BestBd   Gap | It/Node Time

*    0     0               0       1.0000000    1.00000  0.00%     -    0s

Explored 1 nodes (4479 simplex iterations) in 0.69 seconds (0.75 work units)
Thread count was 4 (of 4 available processors)

Solution count 3: 1 0.924 0.768 

Optimal solution found (tolerance 1.00e-04)
Best objective 1.000000000000e+00, best bound 1.000000000000e+00, gap 0.0000%
